Route #1: 1 39 7 8 23 4 2 26 36 22 27 42 21 24 13 19 18 1
Route #2: 1 15 45 37 5 9 41 34 12 1
Route #3: 1 43 38 40 20 25 32 35 1
Route #4: 1 28 29 10 31 11 6 17 1
Route #5: 1 30 3 44 16 33 14 1
cost 2393.458365095403